Instance: E121-07c.dat
Class:  4
  120 --- number of customers (no depot)
   25 --- number of vehicles
  299 --- number of items
Capacity - height - width of vehicles
   200     40     20
Node - x - y - demand
    0    10.0    45.0     0.0
    1    25.0     1.0    25.0
    2    25.0     3.0     7.0
    3    31.0     5.0    13.0
    4    32.0     5.0     6.0
    5    31.0     7.0    14.0
    6    32.0     9.0     5.0
    7    34.0     9.0    11.0
    8    46.0     9.0    19.0
    9    35.0     7.0     5.0
   10    34.0     6.0    15.0
   11    35.0     5.0    15.0
   12    47.0     6.0    17.0
   13    40.0     5.0    13.0
   14    39.0     3.0    12.0
   15    36.0     3.0    18.0
   16    73.0     6.0    13.0
   17    73.0     8.0    18.0
   18    24.0    36.0    12.0
   19    76.0     6.0    17.0
   20    76.0    10.0     4.0
   21    76.0    13.0     7.0
   22    78.0     3.0    12.0
   23    78.0     9.0    13.0
   24    79.0     3.0     8.0
   25    79.0     5.0    16.0
   26    79.0    11.0    15.0
   27    82.0     3.0     6.0
   28    82.0     7.0     5.0
   29    90.0    15.0     9.0
   30    84.0     3.0    11.0
   31    84.0     5.0    10.0
   32    84.0     9.0     3.0
   33    85.0     1.0     7.0
   34    87.0     5.0     2.0
   35    85.0     8.0     4.0
   36    87.0     7.0     4.0
   37    86.0    41.0    18.0
   38    86.0    44.0    14.0
   39    86.0    46.0    12.0
   40    85.0    55.0    17.0
   41    89.0    43.0    20.0
   42    89.0    46.0    14.0
   43    89.0    52.0    16.0
   44    92.0    42.0    10.0
   45    92.0    52.0     9.0
   46    94.0    42.0    11.0
   47    94.0    44.0     7.0
   48    94.0    48.0    13.0
   49    96.0    42.0     5.0
   50    99.0    46.0     4.0
   51    99.0    50.0    21.0
   52    83.0    80.0    13.0
   53    83.0    83.0    11.0
   54    85.0    81.0    12.0
   55    85.0    85.0    14.0
   56    85.0    89.0    10.0
   57    87.0    80.0     8.0
   58    87.0    86.0    16.0
   59    90.0    77.0    19.0
   60    90.0    88.0     5.0
   61    93.0    82.0    17.0
   62    93.0    84.0     7.0
   63    93.0    89.0    16.0
   64    94.0    86.0    14.0
   65    95.0    80.0    17.0
   66    99.0    89.0    13.0
   67    37.0    83.0    17.0
   68    50.0    80.0    13.0
   69    35.0    85.0    14.0
   70    35.0    87.0    16.0
   71    44.0    86.0     7.0
   72    46.0    89.0    13.0
   73    46.0    83.0     9.0
   74    46.0    87.0    11.0
   75    46.0    89.0    35.0
   76    48.0    83.0     5.0
   77    50.0    85.0    28.0
   78    50.0    88.0     7.0
   79    54.0    86.0     3.0
   80    54.0    90.0    10.0
   81    10.0    35.0     7.0
   82    10.0    40.0    12.0
   83    18.0    30.0    11.0
   84    17.0    35.0    10.0
   85    16.0    38.0     8.0
   86    14.0    40.0    11.0
   87    15.0    42.0    21.0
   88    11.0    42.0     4.0
   89    18.0    40.0    15.0
   90    21.0    39.0    16.0
   91    20.0    40.0     4.0
   92    18.0    41.0    16.0
   93    20.0    44.0     7.0
   94    22.0    44.0    10.0
   95    16.0    45.0     9.0
   96    20.0    45.0    11.0
   97    25.0    45.0    17.0
   98    30.0    55.0    12.0
   99    20.0    50.0    11.0
  100    22.0    51.0     7.0
  101    18.0    49.0     9.0
  102    16.0    48.0    11.0
  103    20.0    55.0    12.0
  104    18.0    53.0     7.0
  105    14.0    50.0     8.0
  106    15.0    51.0     6.0
  107    16.0    54.0     5.0
  108    28.0    33.0    12.0
  109    33.0    38.0    13.0
  110    30.0    50.0     7.0
  111    13.0    40.0     7.0
  112    15.0    36.0     8.0
  113    18.0    31.0    11.0
  114    25.0    37.0    13.0
  115    30.0    46.0    11.0
  116    25.0    52.0    10.0
  117    16.0    33.0     7.0
  118    25.0    35.0     4.0
  119     5.0    40.0    20.0
  120     5.0    50.0    13.0
Node - number of items - h - w for each item
    0   0
    1   2    6    6    9    3
    2   1   28    2
    3   1    7   10
    4   1   16    3
    5   1   15    3
    6   3   28    4   16    4   27    2
    7   1    4    6
    8   4   14    5    4    5   25    3   17    3
    9   1    6    2
   10   1   31    4
   11   1   10    8
   12   4    4   12    4    7    7    6   21    3
   13   4    6    5   14    4   12    4   19    2
   14   1    6    8
   15   4    5   14    7    8    6    6   15    4
   16   1   31    3
   17   4    6    5   25    4   15    4   17    2
   18   4    7    7    8    5    8    4   25    2
   19   4    4    9    4    5   17    4    6    4
   20   3    6    5   19    4    5    2
   21   4    8   11    6   10   15    8   28    3
   22   4    7    4   18    3   30    2    6    2
   23   1   32    3
   24   3   15    8   10    5   26    4
   25   1    5    5
   26   3    7   14    6   13   26    3
   27   4    8    4    5    4   14    3   20    2
   28   2   15    5   30    3
   29   1    8   13
   30   3    5   11   24    4   28    2
   31   2    6   14    5    8
   32   4    6    5    5    5    5    4   15    3
   33   1   14    2
   34   2   13    3    6    2
   35   1    6    6
   36   4   17    4   14    4   13    4   15    2
   37   4    6   11    7   10    6    9    9    4
   38   2    8    7   31    2
   39   2    5    8   12    5
   40   4    5   12   11    6    9    6    7    5
   41   4    5   13    8    8   26    4   11    4
   42   2    5   11   27    3
   43   4   13    7   10    5   28    4   21    4
   44   4    6    9    6    6    6    5   27    3
   45   1   19    3
   46   4   14    7    8    6   10    5   21    3
   47   1    6   10
   48   1   12    3
   49   4    6   11    6    5   24    4   26    3
   50   3    8   13    4    7   14    2
   51   2    5   12   28    4
   52   3    5    9   15    4    7    4
   53   3    5   14    6    6    5    4
   54   4    7   14   10    6    5    5    5    2
   55   3    6   11    8    5   16    4
   56   2   12    6    8    4
   57   4    7    9   13    7    5    4   12    3
   58   4    8    6    6    6    4    5   31    3
   59   1   16    6
   60   1    9    3
   61   3    5   11    6    7    5    5
   62   3   14    7   32    4   13    3
   63   2    5    8   18    3
   64   2   10    7   12    3
   65   1    7    5
   66   3   17    3   10    3   28    2
   67   1    5    3
   68   1   15    4
   69   1   11    3
   70   1    5    7
   71   4    7   13   15    5   13    4    4    4
   72   3    6   10    4    6   26    4
   73   1    6    9
   74   1   19    2
   75   1   10    8
   76   1    5    4
   77   1   23    4
   78   2    7   13    6    9
   79   1   22    2
   80   3   15    5   12    5   12    3
   81   4    4   13    5    6   14    3    7    3
   82   4   13    7    5    7   23    2   15    2
   83   2   15    4   17    3
   84   4    7    8   11    5    7    5   15    3
   85   4    7    9    5    4   15    3   15    3
   86   4    7    8    6    7    6    6   32    3
   87   2    5    9   17    4
   88   4    7   12    7    4   31    2   14    2
   89   1    7    4
   90   3   15    7    8    4   22    3
   91   4    9    8   12    5   28    3   22    2
   92   3    7   12    4    4   20    3
   93   2    5    5   12    3
   94   2    6   13   21    3
   95   4   12    8    9    6   13    5   27    2
   96   1   15    3
   97   2   27    4   17    3
   98   4   11    6    5    6    4    5   16    3
   99   3    7   13   15    6   24    2
  100   4    8   11   15    4    6    4   31    2
  101   3    6   12   16    6   27    2
  102   4    4    5    4    5   13    4   11    2
  103   1    7    3
  104   1   17    4
  105   4    6    9   24    4   29    3   29    3
  106   2   13    7   31    3
  107   2    5   11   30    2
  108   3    8   11   12    3    8    3
  109   4    7    9   14    7   30    4   15    2
  110   4    6   13    7    5   18    3   13    3
  111   4    5   11    7    7    6    7    5    7
  112   1   16    3
  113   4    7   11   10    5    5    5   12    4
  114   3   26    4   10    4   12    3
  115   2    8   12    5   10
  116   1   11    5
  117   1   28    3
  118   1    5    9
  119   3    9    7    5    7   17    3
  120   1    7    9
